instances/shortest_path/discrete_knapsack_uncertainty/nohadani_5_18.lp
\ Model nohadani_5_18
\ LP format - for model browsing. Use MPS format to capture full model detail.
\ Signature: 0xa1d49c5c4aa7c587
Minimize
  10 y[0,1] + 51.03920062069938 y[0,2] + 10 y[1,0]
   + 43.18564576337837 y[1,2] + 81.27115109311545 y[1,3]
   + 78.40918313565064 y[1,4] + 51.03920062069938 y[2,0]
   + 43.18564576337837 y[2,1] + 45.09988913511872 y[2,3]
   + 50.56678751908213 y[2,4] + 81.27115109311545 y[3,1]
   + 45.09988913511872 y[3,2] + 18.02775637731995 y[3,4]
   + 78.40918313565064 y[4,1] + 50.56678751908213 y[4,2]
   + 18.02775637731995 y[4,3] + x[0,1] + x[0,2] + x[1,0] + x[1,2] + x[1,3]
   + x[1,4] + x[2,0] + x[2,1] + x[2,3] + x[2,4] + x[3,1] + x[3,2] + x[3,4]
   + x[4,1] + x[4,2] + x[4,3] + r[0,1] + 5.103920062069939 r[0,2] + r[1,0]
   + 4.318564576337837 r[1,2] + 8.127115109311545 r[1,3]
   + 7.840918313565064 r[1,4] + 5.103920062069939 r[2,0]
   + 4.318564576337837 r[2,1] + 4.509988913511872 r[2,3]
   + 5.056678751908213 r[2,4] + 8.127115109311545 r[3,1]
   + 4.509988913511872 r[3,2] + 1.802775637731995 r[3,4]
   + 7.840918313565064 r[4,1] + 5.056678751908213 r[4,2]
   + 1.802775637731995 r[4,3]
Subject To
 flow_cons_inner_nodes[1]: y[0,1] - y[1,0] - y[1,2] - y[1,3] - y[1,4]
   + y[2,1] + y[3,1] + y[4,1] = 0
 flow_cons_inner_nodes[2]: y[0,2] + y[1,2] - y[2,0] - y[2,1] - y[2,3]
   - y[2,4] + y[3,2] + y[4,2] = 0
 flow_cons_inner_nodes[4]: y[1,4] + y[2,4] + y[3,4] - y[4,1] - y[4,2]
   - y[4,3] = 0
 flow_cons_source: y[0,1] + y[0,2] - y[1,0] - y[2,0] = 1
 flow_cons_target: y[1,3] + y[2,3] - y[3,1] - y[3,2] - y[3,4] + y[4,3] = 1
 primal_lower: 4.031162803367849 x[0,1] + 4.569564303657534 x[0,2]
   + 3.240961026046043 x[1,0] + 0.4998775838725267 x[1,2]
   + 0.7236791142728259 x[1,3] + 2.012534526043643 x[1,4]
   + 4.327394489190039 x[2,0] + 3.509111821293402 x[2,1]
   + 3.617387151449024 x[2,3] + 1.967117388909203 x[2,4]
   + 3.533476379293618 x[3,1] + 2.251203014245437 x[3,2]
   + 2.91538060113202 x[3,4] + 0.9485935316023179 x[4,1]
   + 2.866197846325747 x[4,2] + 1.365214349004394 x[4,3] + 18 u[0,1]
   + 55 u[0,2] + 45 u[1,0] + 38 u[1,2] + 35 u[1,3] + 28 u[1,4] + 12 u[2,0]
   + 6 u[2,1] + 56 u[2,3] + 21 u[2,4] + 2 u[3,1] + 22 u[3,2] + 75 u[3,4]
   + 7 u[4,1] + 51 u[4,2] + 27 u[4,3] <= 75
 mccormick1[0,1]: - u[0,1] + r[0,1] <= 0
 mccormick1[0,2]: - u[0,2] + r[0,2] <= 0
 mccormick1[1,0]: - u[1,0] + r[1,0] <= 0
 mccormick1[1,2]: - u[1,2] + r[1,2] <= 0
 mccormick1[1,3]: - u[1,3] + r[1,3] <= 0
 mccormick1[1,4]: - u[1,4] + r[1,4] <= 0
 mccormick1[2,0]: - u[2,0] + r[2,0] <= 0
 mccormick1[2,1]: - u[2,1] + r[2,1] <= 0
 mccormick1[2,3]: - u[2,3] + r[2,3] <= 0
 mccormick1[2,4]: - u[2,4] + r[2,4] <= 0
 mccormick1[3,1]: - u[3,1] + r[3,1] <= 0
 mccormick1[3,2]: - u[3,2] + r[3,2] <= 0
 mccormick1[3,4]: - u[3,4] + r[3,4] <= 0
 mccormick1[4,1]: - u[4,1] + r[4,1] <= 0
 mccormick1[4,2]: - u[4,2] + r[4,2] <= 0
 mccormick1[4,3]: - u[4,3] + r[4,3] <= 0
 mccormick2[0,1]: - y[0,1] + r[0,1] <= 0
 mccormick2[0,2]: - y[0,2] + r[0,2] <= 0
 mccormick2[1,0]: - y[1,0] + r[1,0] <= 0
 mccormick2[1,2]: - y[1,2] + r[1,2] <= 0
 mccormick2[1,3]: - y[1,3] + r[1,3] <= 0
 mccormick2[1,4]: - y[1,4] + r[1,4] <= 0
 mccormick2[2,0]: - y[2,0] + r[2,0] <= 0
 mccormick2[2,1]: - y[2,1] + r[2,1] <= 0
 mccormick2[2,3]: - y[2,3] + r[2,3] <= 0
 mccormick2[2,4]: - y[2,4] + r[2,4] <= 0
 mccormick2[3,1]: - y[3,1] + r[3,1] <= 0
 mccormick2[3,2]: - y[3,2] + r[3,2] <= 0
 mccormick2[3,4]: - y[3,4] + r[3,4] <= 0
 mccormick2[4,1]: - y[4,1] + r[4,1] <= 0
 mccormick2[4,2]: - y[4,2] + r[4,2] <= 0
 mccormick2[4,3]: - y[4,3] + r[4,3] <= 0
 mccormick3[0,1]: - y[0,1] - u[0,1] + r[0,1] >= -1
 mccormick3[0,2]: - y[0,2] - u[0,2] + r[0,2] >= -1
 mccormick3[1,0]: - y[1,0] - u[1,0] + r[1,0] >= -1
 mccormick3[1,2]: - y[1,2] - u[1,2] + r[1,2] >= -1
 mccormick3[1,3]: - y[1,3] - u[1,3] + r[1,3] >= -1
 mccormick3[1,4]: - y[1,4] - u[1,4] + r[1,4] >= -1
 mccormick3[2,0]: - y[2,0] - u[2,0] + r[2,0] >= -1
 mccormick3[2,1]: - y[2,1] - u[2,1] + r[2,1] >= -1
 mccormick3[2,3]: - y[2,3] - u[2,3] + r[2,3] >= -1
 mccormick3[2,4]: - y[2,4] - u[2,4] + r[2,4] >= -1
 mccormick3[3,1]: - y[3,1] - u[3,1] + r[3,1] >= -1
 mccormick3[3,2]: - y[3,2] - u[3,2] + r[3,2] >= -1
 mccormick3[3,4]: - y[3,4] - u[3,4] + r[3,4] >= -1
 mccormick3[4,1]: - y[4,1] - u[4,1] + r[4,1] >= -1
 mccormick3[4,2]: - y[4,2] - u[4,2] + r[4,2] >= -1
 mccormick3[4,3]: - y[4,3] - u[4,3] + r[4,3] >= -1
Bounds
Binaries
 y[0,1] y[0,2] y[1,0] y[1,2] y[1,3] y[1,4] y[2,0] y[2,1] y[2,3] y[2,4]
 y[3,1] y[3,2] y[3,4] y[4,1] y[4,2] y[4,3] x[0,1] x[0,2] x[1,0] x[1,2]
 x[1,3] x[1,4] x[2,0] x[2,1] x[2,3] x[2,4] x[3,1] x[3,2] x[3,4] x[4,1]
 x[4,2] x[4,3] u[0,1] u[0,2] u[1,0] u[1,2] u[1,3] u[1,4] u[2,0] u[2,1]
 u[2,3] u[2,4] u[3,1] u[3,2] u[3,4] u[4,1] u[4,2] u[4,3] r[0,1] r[0,2]
 r[1,0] r[1,2] r[1,3] r[1,4] r[2,0] r[2,1] r[2,3] r[2,4] r[3,1] r[3,2]
 r[3,4] r[4,1] r[4,2] r[4,3]
End
