instances/shortest_path/discrete_knapsack_uncertainty/nohadani_5_18.kp
96603
75

[4.031162803367849 4.5695643036575335 3.2409610260460426 0.4998775838725267 0.7236791142728259 2.012534526043643 4.327394489190039 3.509111821293402 3.617387151449024 1.9671173889092028 3.5334763792936177 2.251203014245437 2.91538060113202 0.9485935316023179 2.866197846325747 1.3652143490043944]

[18 55 45 38 35 28 12 6 56 21 2 22 75 7 51 27]
